# Objective value = 1
end_6 0
end_7 0
end_8 0
end_9 0
end_10 0
end_11 0
end_12 0
end_13 0
end_14 0
end_15 0
end_16 0
end_17 1
k_4 0
k_5 0
k_6 0
k_7 0
k_8 0
k_9 0
k_10 0
k_11 0
k_12 0
k_13 0
k_14 0
k_15 1
k_16 0
l_4 0
l_5 0
l_6 0
l_7 0
l_8 0
l_9 0
l_10 0
l_11 0
l_12 0
l_13 0
l_14 1
l_15 0
l_16 0
m_2 0
m_3 0
m_4 0
m_5 0
m_6 0
m_7 0
m_8 0
m_9 0
m_10 0
m_11 1
m_12 0
m_13 0
m_14 0
m_15 0
m_16 0
n_4 0
n_5 0
n_6 0
n_7 0
n_8 0
n_9 0
n_10 0
n_11 0
n_12 0
n_13 1
n_14 0
n_15 0
n_16 0
o_4 0
o_5 0
o_6 0
o_7 0
o_8 0
o_9 0
o_10 0
o_11 0
o_12 0
o_13 0
o_14 0
o_15 0
o_16 1
p_5 0
p_6 0
p_7 0
p_8 0
p_9 0
p_10 0
p_11 0
p_12 0
p_13 0
p_14 0
p_15 1
p_16 0
q_5 0
q_6 0
q_7 0
q_8 0
q_9 0
q_10 0
q_11 0
q_12 0
q_13 0
q_14 0
q_15 0
q_16 1
o315_1 0
o315_2 1
o315_3 0
o315_4 0
o315_5 0
o315_6 0
o315_7 0
o315_8 0
o315_9 0
o315_10 0
o315_11 0
o315_12 0
p315_2 0
p315_3 0
p315_4 1
p315_5 0
p315_6 0
p315_7 0
p315_8 0
p315_9 0
p315_10 0
p315_11 0
p315_12 0
p315_13 0
p315_14 0
s315_2 0
s315_3 0
s315_4 0
s315_5 0
s315_6 0
s315_7 0
s315_8 0
s315_9 0
s315_10 0
s315_11 1
s315_12 0
s315_13 0
s315_14 0
u315_2 0
u315_3 1
u315_4 0
u315_5 0
u315_6 0
u315_7 0
u315_8 0
u315_9 0
u315_10 0
u315_11 0
u315_12 0
u315_13 0
m316_3 0
m316_4 0
m316_5 0
m316_6 0
m316_7 0
m316_8 0
m316_9 0
m316_10 1
m316_11 0
m316_12 0
m316_13 0
m316_14 0
r316_2 0
r316_3 0
r316_4 0
r316_5 0
r316_6 1
r316_7 0
r316_8 0
r316_9 0
r316_10 0
r316_11 0
r316_12 0
r316_13 0
b317_2 0
b317_3 1
b317_4 0
b317_5 0
b317_6 0
b317_7 0
b317_8 0
b317_9 0
b317_10 0
b317_11 0
b317_12 0
b317_13 0
w315_3 0
w315_4 0
w315_5 0
w315_6 0
w315_7 0
w315_8 0
w315_9 0
w315_10 0
w315_11 0
w315_12 0
w315_13 0
w315_14 1
w315_15 0
z315_3 0
z315_4 0
z315_5 0
z315_6 0
z315_7 0
z315_8 0
z315_9 0
z315_10 0
z315_11 0
z315_12 0
z315_13 1
z315_14 0
z315_15 0
h316_3 0
h316_4 0
h316_5 0
h316_6 0
h316_7 0
h316_8 0
h316_9 0
h316_10 0
h316_11 0
h316_12 1
h316_13 0
h316_14 0
h316_15 0
j316_3 0
j316_4 0
j316_5 0
j316_6 0
j316_7 0
j316_8 0
j316_9 0
j316_10 0
j316_11 0
j316_12 0
j316_13 0
j316_14 0
j316_15 1
q315_1 0
q315_2 0
q315_3 0
q315_4 0
q315_5 1
q315_6 0
q315_7 0
q315_8 0
q315_9 0
q315_10 0
q315_11 0
q315_12 0
q315_13 0
q315_14 0
r315_1 0
r315_2 0
r315_3 0
r315_4 0
r315_5 0
r315_6 0
r315_7 1
r315_8 0
r315_9 0
r315_10 0
r315_11 0
r315_12 0
r315_13 0
v315_2 0
v315_3 0
v315_4 0
v315_5 0
v315_6 0
v315_7 0
v315_8 0
v315_9 0
v315_10 0
v315_11 0
v315_12 1
v315_13 0
v315_14 0
n316_4 0
n316_5 0
n316_6 0
n316_7 0
n316_8 0
n316_9 0
n316_10 0
n316_11 1
n316_12 0
n316_13 0
n316_14 0
n316_15 0
t315_1 1
t315_2 0
t315_3 0
t315_4 0
t315_5 0
t315_6 0
t315_7 0
t315_8 0
t315_9 0
t315_10 0
t315_11 0
t315_12 0
y315_2 0
y315_3 0
y315_4 0
y315_5 0
y315_6 1
y315_7 0
y315_8 0
y315_9 0
y315_10 0
y315_11 0
y315_12 0
y315_13 0
y315_14 0
g316_2 1
g316_3 0
g316_4 0
g316_5 0
g316_6 0
g316_7 0
g316_8 0
g316_9 0
g316_10 0
g316_11 0
g316_12 0
g316_13 0
g316_14 0
l316_2 0
l316_3 0
l316_4 0
l316_5 0
l316_6 0
l316_7 0
l316_8 0
l316_9 1
l316_10 0
l316_11 0
l316_12 0
l316_13 0
u316_2 1
u316_3 0
u316_4 0
u316_5 0
u316_6 0
u316_7 0
u316_8 0
u316_9 0
u316_10 0
u316_11 0
u316_12 0
u316_13 0
u316_14 0
u316_15 0
y316_3 0
y316_4 1
y316_5 0
y316_6 0
y316_7 0
y316_8 0
y316_9 0
y316_10 0
y316_11 0
y316_12 0
y316_13 0
y316_14 0
b316_1 1
b316_2 0
b316_3 0
b316_4 0
b316_5 0
b316_6 0
b316_7 0
b316_8 0
b316_9 0
b316_10 0
b316_11 0
b316_12 0
b316_13 0
d316_1 0
d316_2 0
d316_3 0
d316_4 1
d316_5 0
d316_6 0
d316_7 0
d316_8 0
d316_9 0
d316_10 0
d316_11 0
d316_12 0
p316_2 0
p316_3 0
p316_4 0
p316_5 1
p316_6 0
p316_7 0
p316_8 0
p316_9 0
p316_10 0
p316_11 0
p316_12 0
p316_13 0
c317_2 0
c317_3 0
c317_4 0
c317_5 0
c317_6 0
c317_7 1
c317_8 0
c317_9 0
c317_10 0
c317_11 0
c317_12 0
c317_13 0
e316_1 0
e316_2 0
e316_3 1
e316_4 0
e316_5 0
e316_6 0
e316_7 0
e316_8 0
e316_9 0
e316_10 0
e316_11 0
e316_12 0
f316_1 0
f316_2 0
f316_3 0
f316_4 0
f316_5 0
f316_6 1
f316_7 0
f316_8 0
f316_9 0
f316_10 0
f316_11 0
f316_12 0
o316_1 0
o316_2 0
o316_3 0
o316_4 0
o316_5 0
o316_6 0
o316_7 0
o316_8 0
o316_9 0
o316_10 0
o316_11 0
o316_12 1
o316_13 0
o316_14 0
o316_15 0
s316_3 0
s316_4 0
s316_5 0
s316_6 0
s316_7 1
s316_8 0
s316_9 0
s316_10 0
s316_11 0
s316_12 0
s316_13 0
s316_14 0
q316_1 0
q316_2 0
q316_3 0
q316_4 0
q316_5 1
q316_6 0
q316_7 0
q316_8 0
q316_9 0
q316_10 0
q316_11 0
q316_12 0
t316_4 0
t316_5 0
t316_6 0
t316_7 0
t316_8 1
t316_9 0
t316_10 0
t316_11 0
t316_12 0
t316_13 0
t316_14 0
t316_15 0
z316_4 0
z316_5 0
z316_6 0
z316_7 0
z316_8 1
z316_9 0
z316_10 0
z316_11 0
z316_12 0
z316_13 0
z316_14 0
z316_15 0
d317_3 0
d317_4 0
d317_5 0
d317_6 0
d317_7 0
d317_8 0
d317_9 1
d317_10 0
d317_11 0
d317_12 0
d317_13 0
d317_14 0
e317_4 0
e317_5 0
e317_6 0
e317_7 0
e317_8 0
e317_9 0
e317_10 1
e317_11 0
e317_12 0
e317_13 0
e317_14 0
e317_15 0
